problems/csplib-prob015/SchursLemma-models/noch/O2/lingeling/model_1_2-6-13-solution000001.solution
language Essence 1.3

letting boxes be partition({1, 3, 5, 7}, {2, 6}, {4, 8}, {9}, {10, 12}, {11, 13})
